p cnf 50 100
1 -50 -32 0
1 -50 -27 0
1 -49 -22 0
1 -49 46 0
1 -48 -15 0
1 -48 34 0
1 -47 7 0
1 -47 27 0
1 -46 -36 0
1 -46 7 0
1 -45 44 0
1 -45 46 0
1 -44 -5 0
1 -44 24 0
1 -43 18 0
1 -43 42 0
1 -42 -41 0
1 -42 26 0
1 -41 -21 0
1 -40 15 0
1 -40 20 0
1 -39 33 0
1 -39 43 0
1 -38 24 0
1 -38 36 0
1 -37 -12 0
1 -37 25 0
1 -36 45 0
1 -35 21 0
1 -35 39 0
1 -34 8 0
1 -34 23 0
1 -33 -12 0
1 -33 16 0
1 -32 4 0
1 -31 -23 0
1 -31 9 0
1 -30 -14 0
1 -30 -9 0
1 -29 -27 0
1 -29 13 0
1 -28 -3 0
1 -28 29 0
1 -26 -7 0
1 -26 45 0
1 -25 -20 0
1 -25 -13 0
1 -24 4 0
1 -24 44 0
1 -23 31 0
1 -22 27 0
1 -21 19 0
1 -20 -8 0
1 -19 -8 0
1 -19 36 0
1 -18 48 0
1 -18 49 0
1 -17 -14 0
1 -17 1 0
1 -16 -6 0
1 -16 18 0
1 -15 6 0
1 -13 9 0
1 -11 -10 0
1 -11 -6 0
1 -10 11 0
1 -9 33 0
1 -7 30 0
1 -5 29 0
1 -4 19 0
1 -4 32 0
1 -3 30 0
1 -2 14 0
1 -2 39 0
1 -1 10 0
1 -1 17 0
1 1 11 0
1 2 40 0
1 2 50 0
1 3 8 0
1 3 22 0
1 5 10 0
1 5 34 0
1 6 31 0
1 12 28 0
1 12 47 0
1 13 50 0
1 14 47 0
1 15 23 0
1 16 37 0
1 17 26 0
1 20 28 0
1 21 22 0
1 25 42 0
1 32 49 0
1 35 37 0
1 35 41 0
1 38 43 0
1 38 48 0
1 40 41 0
